unsat
(:max-memory         17.95
 :memory             17.95
 :nlsat-conflicts    2
 :nlsat-propagations 7
 :nlsat-stages       2
 :num-allocs         18235
 :rlimit-count       452
 :time               0.00)
